p cnf 7230 17
-2382 -3060 3557 0
3060 -3557 0
-2394 -3050 -3562 0
-2392 -3068 -3560 0
-2390 -3086 -3558 0
2394 -3563 0
2392 -3561 0
2390 -3559 0
3562 3563 0
3560 3561 0
3558 3559 0
3050 -3563 0
3068 -3561 0
3086 -3559 0
2400 -3565 0
3556 3557 0
-3556 -3557 0
